(declare-fun $Property~0.acceptable$3 () Bool)
(declare-fun $speed$3 () Int)
(declare-fun $minus$3 () Bool)
(declare-fun $plus$3 () Bool)
(declare-fun $Environment~0.plus$3 () Bool)
(declare-fun $Environment~0.diff$3 () Int)
(declare-fun $Sofar~0.Sofar$3 () Bool)
(declare-fun $realistic$3 () Bool)
(declare-fun $OK$3 () Bool)
(declare-fun $Environment~0.minus$3 () Bool)
(declare-fun $diff$1 () Int)
(declare-fun $Environment~0.plus$0 () Bool)
(declare-fun $Property~0.ok$3 () Bool)
(declare-fun $Sofar~0.X$3 () Bool)
(declare-fun $Environment~0.ok$3 () Bool)
(declare-fun $Sofar~0.Sofar$0 () Bool)
(declare-fun $Property~0.cpt$3 () Int)
(declare-fun $Environment~0.minus$0 () Bool)
(declare-fun $Property~0.speed$3 () Int)
(declare-fun $Property~0.cpt$0 () Int)

(assert (let ((a!1 (and (ite $Environment~0.minus$0 (<= $diff$1 (- 0 1)) true)
                (ite $Environment~0.plus$0 (>= $diff$1 1) true)
                (<= $diff$1 4)
                (<= (- 0 4) $diff$1)))
      (a!4 (or (not (<= (- 4) $diff$1))
               (not (<= $diff$1 4))
               (and $Environment~0.plus$0 (not (>= $diff$1 1)))
               (and $Environment~0.minus$0 (not (<= $diff$1 (- 1)))))))
(let ((a!2 (and $Sofar~0.Sofar$0 (and (< 8 16) a!1 (<= 0 8)))))
(let ((a!3 (and (= $realistic$3 a!1)
                (= $Environment~0.ok$3 a!1)
                (= $OK$3 (or (<= $Property~0.cpt$0 7) (not a!2)))
                (= $Sofar~0.Sofar$3 a!2)
                (= $Property~0.ok$3 (<= $Property~0.cpt$0 7))
                (= $Environment~0.diff$3 $diff$1)
                (= $Environment~0.plus$3 false)
                (= $plus$3 false)
                (= $Environment~0.minus$3 false)
                (= $minus$3 false)
                (= $Sofar~0.X$3 (and (< 8 16) a!1 (<= 0 8)))
                (= $speed$3 8)
                (= $Property~0.speed$3 8)
                (= $Property~0.acceptable$3 true)
                (= $Property~0.cpt$3 0))))
  (ite (and (or (not $Sofar~0.Sofar$0) (<= $Property~0.cpt$0 7))
            (<= (- 4) $diff$1)
            (<= $diff$1 4)
            (or (not $Environment~0.plus$0) (>= $diff$1 1))
            (or (not $Environment~0.minus$0) (<= $diff$1 (- 1))))
       a!3
       (ite a!4 a!3 true))))))
(check-sat)
